/*********************************************
 * OPL 12.6.0.0 Data
 * Author: Adrian Rodriguez Bazaga, Pau Rodriguez Esmerats
 * Creation Date: 22/11/2017 at 18:56:20
 *********************************************/

nNurses=72;
maxConsec=2;
maxPresence=7;
maxHours=5;
minHours=1;
demand= [16 19 27 22 19 27 22 19 19 7 1 2 4 2 5 2 4 1 4 0 9 19 11 17  ];
